# Solution for model GasLib-40
# Objective value = 1.1413042145308424e+01
loadshed[innode_1] 0
loadshed[innode_2] 0
loadshed[innode_3] 0
loadshed[innode_4] 0
loadshed[innode_5] 0
loadshed[innode_6] 0
loadshed[innode_7] 0
loadshed[innode_8] 0
loadshed[source_1] -2.2618255357204586e-01
loadshed[source_2] 1.0462576651253608e-01
loadshed[source_3] 1.9374998138945609e-01
loadshed[sink_1] 0
loadshed[sink_2] 0
loadshed[sink_3] 0
loadshed[sink_4] 0
loadshed[sink_5] 0
loadshed[sink_6] 0
loadshed[sink_7] 0
loadshed[sink_8] 0
loadshed[sink_9] 0
loadshed[sink_10] 0
loadshed[sink_11] 0
loadshed[sink_12] 6.9786754519083349e-01
loadshed[sink_13] 0
loadshed[sink_14] 0
loadshed[sink_15] 0
loadshed[sink_16] 0
loadshed[sink_17] 0
loadshed[sink_18] 0
loadshed[sink_19] 0
loadshed[sink_20] 0
loadshed[sink_21] 0
loadshed[sink_22] 0
loadshed[sink_23] 0
loadshed[sink_24] 0
loadshed[sink_25] 0
loadshed[sink_26] 0
loadshed[sink_27] 0
loadshed[sink_28] 0
loadshed[sink_29] 0
flow[source_1,sink_3] 1.9384754050046962e+02
flow[innode_1,sink_16] 1.6354166666666970e+01
flow[innode_6,sink_13] -1.2981122733812724e+01
flow[sink_13,sink_14] -2.9335289400479390e+01
flow[sink_14,sink_10] -4.5689456067146061e+01
flow[sink_25,sink_26] 1.7172168652125345e+02
flow[sink_26,sink_9] 1.3577445785469180e+02
flow[sink_9,sink_18] 1.1942029118802513e+02
flow[sink_26,sink_4] 1.9593061999895667e+01
flow[sink_4,sink_20] 3.2388953332289248e+00
flow[sink_18,sink_6] 1.0306612452135846e+02
flow[sink_25,innode_8] -1.6113920716713326e+02
flow[sink_6,sink_7] 5.4003624521358248e+01
flow[sink_6,sink_22] 3.2708333333333641e+01
flow[sink_7,sink_24] 3.7649457854691576e+01
flow[sink_22,sink_1] 1.6354166666666970e+01
flow[sink_24,sink_21] 2.1295291188024912e+01
flow[sink_21,sink_12] 4.9411245213582449e+00
flow[sink_7,sink_5] 0
flow[sink_5,sink_17] -1.6354166666667197e+01
flow[sink_17,sink_4] 0
flow[sink_17,sink_8] -3.2708333333333840e+01
flow[sink_3,sink_23] 16.3541666666697
flow[sink_8,sink_20] -4.9062500000000512e+01
flow[sink_25,sink_20] 62.1777713334379
flow[sink_25,sink_15] -7.6133294620412315e+01
flow[sink_15,sink_29] -9.2487461287078986e+01
flow[sink_29,sink_28] 1.6354166666667879e+01
flow[sink_29,sink_2] 1.6354166666684250e+01
flow[sink_2,sink_15] 0
flow[sink_29,innode_7] -1.4154996128709803e+02
flow[innode_4,sink_19] 4.9752034564117579e+01
flow[sink_19,innode_3] 4.6238554612978390e+01
flow[innode_4,innode_5] 77.7082548363618
flow[sink_27,innode_5] -77.7082548363618
flow[sink_27,sink_19] 6.1354088169695132e+01
flow[sink_10,sink_11] 3.2708333333333641e+01
flow[sink_10,innode_2] -4.8513401454167848e+01
flow[sink_10,innode_3] -4.6238554612978390e+01
flow[innode_6,sink_25] 1.2981122733812724e+01
flow[sink_11,innode_1] 1.6354166666666970e+01
flow[sink_19,innode_2] 4.8513401454167848e+01
flow[source_3,innode_4] 1.2746028940047938e+02
flow[source_2,innode_7] 1.4154996128709803e+02
flow[sink_3,innode_8] 1.6113920716713326e+02
pressure[innode_1] 7.6281833369534482e+01
pressure[innode_2] 78.997668310901
pressure[innode_3] 7.8895278267658867e+01
pressure[innode_4] 81.01325
pressure[innode_5] 8.0959798164754588e+01
pressure[innode_6] 7.4148426800348290e+01
pressure[innode_7] 81.01325
pressure[innode_8] 8.0365291724551511e+01
pressure[source_1] 81.01325
pressure[source_2] 81.01325
pressure[source_3] 81.01325
pressure[sink_1] 44.7534854662254
pressure[sink_2] 7.6813073558442724e+01
pressure[sink_3] 8.0365291724551511e+01
pressure[sink_4] 5.9563056653435446e+01
pressure[sink_5] 5.3454032364801961e+01
pressure[sink_6] 4.6854563076612770e+01
pressure[sink_7] 4.6113222037092662e+01
pressure[sink_8] 5.5906469960983856e+01
pressure[sink_9] 53.9277175383776
pressure[sink_10] 7.6433534677138027e+01
pressure[sink_11] 7.6281833369534482e+01
pressure[sink_12] 1.01325
pressure[sink_13] 7.4219989560632669e+01
pressure[sink_14] 7.4272487559828960e+01
pressure[sink_15] 7.4517747465201907e+01
pressure[sink_16] 75.2601835347168
pressure[sink_17] 5.4672299570156710e+01
pressure[sink_18] 4.9606735469513339e+01
pressure[sink_19] 78.997668310901
pressure[sink_20] 5.9325436231748405e+01
pressure[sink_21] 2.7715725334976966e+00
pressure[sink_22] 4.5817254608580406e+01
pressure[sink_23] 8.0200573712891725e+01
pressure[sink_24] 3.0073980977198715e+00
pressure[sink_25] 7.4148426800348290e+01
pressure[sink_26] 6.2054169265210376e+01
pressure[sink_27] 80.3149632390284
pressure[sink_28] 76.9320607832892
pressure[sink_29] 7.7227343056906378e+01
interdiction[source_1,sink_3] 0
interdiction[innode_1,sink_16] 0
interdiction[innode_6,sink_13] 0
interdiction[sink_13,sink_14] 0
interdiction[sink_14,sink_10] 0
interdiction[sink_25,sink_26] 0
interdiction[sink_26,sink_9] 0
interdiction[sink_9,sink_18] 0
interdiction[sink_26,sink_4] 0
interdiction[sink_4,sink_20] 0
interdiction[sink_18,sink_6] 0
interdiction[sink_25,innode_8] 0
interdiction[sink_6,sink_7] 0
interdiction[sink_6,sink_22] 0
interdiction[sink_7,sink_24] 0
interdiction[sink_22,sink_1] 0
interdiction[sink_24,sink_21] 0
interdiction[sink_21,sink_12] 0
interdiction[sink_7,sink_5] 1
interdiction[sink_5,sink_17] 0
interdiction[sink_17,sink_4] 1
interdiction[sink_17,sink_8] 0
interdiction[sink_3,sink_23] 0
interdiction[sink_8,sink_20] 0
interdiction[sink_25,sink_20] 0
interdiction[sink_25,sink_15] 0
interdiction[sink_15,sink_29] 0
interdiction[sink_29,sink_28] 0
interdiction[sink_29,sink_2] 0
interdiction[sink_2,sink_15] 1
interdiction[sink_29,innode_7] 0
interdiction[innode_4,sink_19] 0
interdiction[sink_19,innode_3] 0
interdiction[innode_4,innode_5] 0
interdiction[sink_27,innode_5] 0
interdiction[sink_27,sink_19] 0
interdiction[sink_10,sink_11] 0
interdiction[sink_10,innode_2] 0
interdiction[sink_10,innode_3] 0
interdiction[innode_6,sink_25] 0
interdiction[sink_11,innode_1] 0
interdiction[sink_19,innode_2] 0
interdiction[source_3,innode_4] 0
interdiction[source_2,innode_7] 0
interdiction[sink_3,innode_8] 0
WCcheckFlow[source_1,sink_3] 39
WCcheckFlow[innode_1,sink_16] 1
WCcheckFlow[innode_6,sink_13] 13
WCcheckFlow[sink_13,sink_14] 12
WCcheckFlow[sink_14,sink_10] 11
WCcheckFlow[sink_25,sink_26] 15
WCcheckFlow[sink_26,sink_9] 9
WCcheckFlow[sink_9,sink_18] 8
WCcheckFlow[sink_26,sink_4] 5
WCcheckFlow[sink_4,sink_20] 4
WCcheckFlow[sink_18,sink_6] 7
WCcheckFlow[sink_25,innode_8] -36
WCcheckFlow[sink_6,sink_7] 4
WCcheckFlow[sink_6,sink_22] 2
WCcheckFlow[sink_7,sink_24] 3
WCcheckFlow[sink_22,sink_1] 1
WCcheckFlow[sink_24,sink_21] 2
WCcheckFlow[sink_21,sink_12] 1
WCcheckFlow[sink_7,sink_5] 0
WCcheckFlow[sink_5,sink_17] -1
WCcheckFlow[sink_17,sink_4] 0
WCcheckFlow[sink_17,sink_8] -2
WCcheckFlow[sink_3,sink_23] 1
WCcheckFlow[sink_8,sink_20] -3
WCcheckFlow[sink_25,sink_20] 0
WCcheckFlow[sink_25,sink_15] 6
WCcheckFlow[sink_15,sink_29] 5
WCcheckFlow[sink_29,sink_28] 1
WCcheckFlow[sink_29,sink_2] 1
WCcheckFlow[sink_2,sink_15] 0
WCcheckFlow[sink_29,innode_7] 2
WCcheckFlow[innode_4,sink_19] -4
WCcheckFlow[sink_19,innode_3] -5
WCcheckFlow[innode_4,innode_5] 2
WCcheckFlow[sink_27,innode_5] -1
WCcheckFlow[sink_27,sink_19] 0
WCcheckFlow[sink_10,sink_11] 3
WCcheckFlow[sink_10,innode_2] 1
WCcheckFlow[sink_10,innode_3] 6
WCcheckFlow[innode_6,sink_25] -14
WCcheckFlow[sink_11,innode_1] 2
WCcheckFlow[sink_19,innode_2] 0
WCcheckFlow[source_3,innode_4] -1
WCcheckFlow[source_2,innode_7] -1
WCcheckFlow[sink_3,innode_8] 37
